\ENCODING=ISO-8859-1
\Problem name: Integer_Problem

Maximize
 obj: 0.2 x1 + 0.3 x2 + 0.5 x3 + 0.1 x4 + 0 x20.3x3
Subject To
 c1: 0.5 x1 + x2 + 1.5 x3 + 0.1 x4 <= 3.1
 c2: 0.3 x1 + 0.8 x2 + 1.5 x3 + 0.4 x4 <= 2.5
 c3: 0.2 x1 + 0.2 x2 + 0.3 x3 + 0.1 x4 <= 0.4
Bounds
 0 <= x1 <= 1
 0 <= x2 <= 1
 0 <= x3 <= 1
 0 <= x4 <= 1
Binaries
 x1  x2  x3  x4 
End
